10 12 20 15 34 42 3 18 5 22 8
0 300 45
50 350 38
60 300 55
20 250 18
10 200 50
100 350 78
20 250 38
0 300 45
50 350 38
60 300 55
0 10 5 20 3 20 7 12 12 12
8 0 12 23 31 7 1 12 12 2
3 15 0 10 4 10 32 2 2 12
12 12 8 0 5 7 27 2 12 2
3 32 15 9 0 12 23 12 2 12
23 7 2 5 24 0 12 2 2 2
32 21 17 4 8 12 0 12 12 2
12 2 12 2 12 12 12 0 12 2
12 2 12 2 12 12 12 2 0 12 
12 2 12 2 12 12 12 2 2 0 12